56
0 1 2 6 8 9 13 17 34 40 42 100 112 141 155 278 365 531 1026 1514 143 175 303 593 1579 1694 62 174 658 1747 111 542 1385 123 165 662 1083 1301 1924 190 222 405 414 280 288 335 580 1777 163 960 56 201 204 259 263 207
